(set-info :smt-lib-version 2.6)
(set-logic QF_UFLIA)
(set-info :source |
Generated by: Geoff Sutcliffe
Generated on: 2026-03-11
Generator: TPTPWorld
Application: Benchmarking automated theorem provers
Time limit: 120.0

These benchmarks are translations from the TPTP Library (Thousands of
Problems for Theorem Provers), see http://www.cs.miami.edu/~tptp/

The TPTP is maintained by Geoff Sutcliffe, and he contributed this
selection of benchmarks to SMT-LIB.  They were exported from the
v9.2.1 realease of TPTP.
|)
(set-info :category "industrial")
(set-info :status "unknown")
; SZS status Success
(declare-sort $$unsorted 0)
(declare-fun tptp.a () Int)
(assert (not (= (and (> 10 tptp.a) (<= 0 tptp.a)) (or (= tptp.a 9) (= tptp.a 8) (= tptp.a 7) (= tptp.a 6) (= tptp.a 5) (= tptp.a 4) (= tptp.a 3) (= tptp.a 2) (= tptp.a 1) (= tptp.a 0)))))
(check-sat)
(exit)
